# Objective value = 47
WA1n 0
WA1p 0
WA2n 0
WA2p 1
WB1n 0
WB1p 0
WB2n 0
WB2p 1
WC1n 1
WC1p 0
WD1n 0
WD1p 1
WE1n 0
WE1p 1
WF1n 0
WF1p 1
WG1n 0
WG1p 1
WH1n 0
WH1p 1
WI1n 7
WI1p 0
WI2n 0
WI2p 0
WJ1n 6
WJ1p 0
WJ2n 1
WJ2p 0
WK1n 0
WK1p 7
WK2n 0
WK2p 0
WL1n 0
WL1p 7
WL2n 0
WL2p 0
WT1n 8
WT1p 0
WT2n 0
WT2p 0
100 108
a 1
b 1
c 1
d 1
e 1
f 1
g 1
h 1
i 1
j 1
k 1
l 1
m 1
n 1
o 1
p 1
q 1
r 1
s 1
t 1
